# Solution for model r3_t9_m8_3
# Finished Task: 8 / 9
# Makespan: 529.0, Total Distance: 527.0, Total Time: 0.1355
# R O S F
0 0 3 0.0 0.0
1 1 7 0.0 0.0
2 2 8 0.0 0.0
3 0 10 341.0 380.0
4 0 -1 506.0 529.0
5 2 11 383.0 411.0
6 -1 -1 -1.0 -1.0
7 1 9 376.0 404.0
8 2 5 192.0 229.0
9 1 -1 404.0 431.0
10 0 4 404.0 441.0
11 2 -1 441.0 467.0
